100 100 1656353
8 5 42 6 41 6 58 99 9 100 7 24 23 42 17 11 26 11 100 29 10 25 17 77 3 89 1 12 33 21
81 76 19 80 48 86 20 3 52 14 53 54 77 32 30 90 65 84 11 81 64 48 93 31 71 9 6 99 72 26
953 389 1668 676 3580 1416 3166 537 1176 3434 676 1408 2362 4031 1152 2255 3570 1913 1552 4559 713 1279 3989 4850 299 1577 12 2116 2932 1214627
915 417 1576 795 3583 1380 3451 626 1273 3126 718 1312 3115 4057 1148 2216 3972 1934 1553 4703 698 1464 4097 5543 368 1644 14 2365 3057 1505776
